(set-info :source |printed by MathSAT|)
(declare-fun |!{$(in_main#0)<k>}| () Int)
(declare-fun |!{$(in_main#0)<k>}.next| () Int)
(declare-fun |!{$(in_main#0)<k#1>}| () Int)
(declare-fun |!{$(in_main#0)<k#1>}.next| () Int)
(declare-fun |!{%memaddr}| () Int)
(declare-fun |!{%memaddr}.next| () Int)
(declare-fun |!{%mem.0}| () (Array Int Int))
(declare-fun |!{%mem.0}.next| () (Array Int Int))
(declare-fun |!{$(in_main#0)<N>}| () Int)
(declare-fun |!{$(in_main#0)<N>}.next| () Int)
(declare-fun |!{$(in_main#0)<&array>}| () Int)
(declare-fun |!{$(in_main#0)<&array>}.next| () Int)
(declare-fun |!{$(in_main#0)<$(in___VERIFIER_nondet_int#1)<h#<__VERIFIER_nondet_int.return>>>}| () Int)
(declare-fun |!{$(in_main#0)<$(in___VERIFIER_nondet_int#3)<h#<__VERIFIER_nondet_int.return>>>}| () Int)
(declare-fun !pc () Int)
(declare-fun !pc.next () Int)
(declare-fun |%{$(in_main#0)<k#1>}#1| () Int)
(declare-fun |%{%mem.0}#5| () (Array Int Int))
(define-fun .def_49 () Int (! !pc :next !pc.next))
(define-fun .def_52 () Bool (! (= .def_49 2) :init true))
(define-fun .def_206 () Bool (= .def_49 47))
(define-fun .def_130 () Bool (= !pc.next 109))
(define-fun .def_209 () Bool (and .def_130 .def_206))
(define-fun .def_200 () Bool (= |!{%mem.0}.next| |%{%mem.0}#5|))
(define-fun .def_197 () Bool (= |!{$(in_main#0)<k#1>}.next| 0))
(define-fun .def_8 () Int (! |!{$(in_main#0)<k>}| :next |!{$(in_main#0)<k>}.next|))
(define-fun .def_95 () Bool (= .def_8 |!{$(in_main#0)<k>}.next|))
(define-fun .def_198 () Bool (and .def_95 .def_197))
(define-fun .def_12 () Int (! |!{%memaddr}| :next |!{%memaddr}.next|))
(define-fun .def_99 () Bool (= .def_12 |!{%memaddr}.next|))
(define-fun .def_199 () Bool (and .def_99 .def_198))
(define-fun .def_201 () Bool (and .def_199 .def_200))
(define-fun .def_16 () Int (! |!{$(in_main#0)<N>}| :next |!{$(in_main#0)<N>}.next|))
(define-fun .def_102 () Bool (= .def_16 |!{$(in_main#0)<N>}.next|))
(define-fun .def_202 () Bool (and .def_102 .def_201))
(define-fun .def_18 () Int (! |!{$(in_main#0)<&array>}| :next |!{$(in_main#0)<&array>}.next|))
(define-fun .def_104 () Bool (= .def_18 |!{$(in_main#0)<&array>}.next|))
(define-fun .def_203 () Bool (and .def_104 .def_202))
(define-fun .def_14 () (Array Int Int) (! |!{%mem.0}| :next |!{%mem.0}.next|))
(define-fun .def_183 () Bool (= .def_14 |%{%mem.0}#5|))
(define-fun .def_148 () Bool (<= 0 .def_16))
(define-fun .def_146 () Bool (<= .def_16 0))
(define-fun .def_147 () Bool (not .def_146))
(define-fun .def_149 () Bool (and .def_147 .def_148))
(define-fun .def_181 () Bool (not .def_149))
(define-fun .def_184 () Bool (and .def_181 .def_183))
(define-fun .def_153 () Int (+ .def_16 .def_18))
(define-fun .def_165 () Int (+ .def_153 (- 2)))
(define-fun .def_160 () Int (+ .def_18 1))
(define-fun .def_154 () Int (+ .def_153 (- 1)))
(define-fun .def_150 () (Array Int Int) (store .def_14 .def_18 0))
(define-fun .def_155 () (Array Int Int) (store .def_150 .def_154 0))
(define-fun .def_161 () (Array Int Int) (store .def_155 .def_160 0))
(define-fun .def_166 () (Array Int Int) (store .def_161 .def_165 0))
(define-fun .def_175 () Bool (= .def_166 |%{%mem.0}#5|))
(define-fun .def_158 () Bool (<= 2 .def_16))
(define-fun .def_156 () Bool (<= .def_16 1))
(define-fun .def_157 () Bool (not .def_156))
(define-fun .def_159 () Bool (and .def_157 .def_158))
(define-fun .def_177 () Bool (and .def_159 .def_175))
(define-fun .def_174 () Bool (= .def_155 |%{%mem.0}#5|))
(define-fun .def_167 () Bool (not .def_159))
(define-fun .def_176 () Bool (and .def_167 .def_174))
(define-fun .def_178 () Bool (or .def_176 .def_177))
(define-fun .def_179 () Bool (and .def_149 .def_178))
(define-fun .def_185 () Bool (or .def_179 .def_184))
(define-fun .def_204 () Bool (and .def_185 .def_203))
(define-fun .def_141 () Bool (<= .def_16 .def_8))
(define-fun .def_205 () Bool (and .def_141 .def_204))
(define-fun .def_210 () Bool (and .def_205 .def_209))
(define-fun .def_81 () Bool (= !pc.next 47))
(define-fun .def_207 () Bool (and .def_81 .def_206))
(define-fun .def_143 () Int (+ .def_8 .def_18))
(define-fun .def_144 () (Array Int Int) (store .def_14 .def_143 |!{$(in_main#0)<$(in___VERIFIER_nondet_int#3)<h#<__VERIFIER_nondet_int.return>>>}|))
(define-fun .def_192 () Bool (= |!{%mem.0}.next| .def_144))
(define-fun .def_187 () Int (* (- 1) |!{$(in_main#0)<k>}.next|))
(define-fun .def_188 () Int (+ .def_8 .def_187))
(define-fun .def_189 () Bool (= .def_188 (- 1)))
(define-fun .def_10 () Int (! |!{$(in_main#0)<k#1>}| :next |!{$(in_main#0)<k#1>}.next|))
(define-fun .def_97 () Bool (= .def_10 |!{$(in_main#0)<k#1>}.next|))
(define-fun .def_190 () Bool (and .def_97 .def_189))
(define-fun .def_191 () Bool (and .def_99 .def_190))
(define-fun .def_193 () Bool (and .def_191 .def_192))
(define-fun .def_194 () Bool (and .def_102 .def_193))
(define-fun .def_195 () Bool (and .def_104 .def_194))
(define-fun .def_142 () Bool (not .def_141))
(define-fun .def_196 () Bool (and .def_142 .def_195))
(define-fun .def_208 () Bool (and .def_196 .def_207))
(define-fun .def_211 () Bool (or .def_208 .def_210))
(define-fun .def_134 () Bool (= !pc.next 0))
(define-fun .def_125 () Bool (= .def_49 109))
(define-fun .def_135 () Bool (and .def_125 .def_134))
(define-fun .def_84 () Bool (<= .def_16 .def_10))
(define-fun .def_118 () Bool (and .def_84 .def_95))
(define-fun .def_119 () Bool (and .def_97 .def_118))
(define-fun .def_120 () Bool (and .def_99 .def_119))
(define-fun .def_73 () Bool (= .def_14 |!{%mem.0}.next|))
(define-fun .def_121 () Bool (and .def_73 .def_120))
(define-fun .def_122 () Bool (and .def_102 .def_121))
(define-fun .def_123 () Bool (and .def_104 .def_122))
(define-fun .def_136 () Bool (and .def_123 .def_135))
(define-fun .def_131 () Bool (and .def_125 .def_130))
(define-fun .def_108 () Int (* (- 1) |!{$(in_main#0)<k#1>}.next|))
(define-fun .def_109 () Int (+ .def_10 .def_108))
(define-fun .def_110 () Bool (= .def_109 (- 1)))
(define-fun .def_111 () Bool (and .def_95 .def_110))
(define-fun .def_112 () Bool (and .def_99 .def_111))
(define-fun .def_113 () Bool (and .def_73 .def_112))
(define-fun .def_114 () Bool (and .def_102 .def_113))
(define-fun .def_115 () Bool (and .def_104 .def_114))
(define-fun .def_86 () Int (+ .def_10 .def_18))
(define-fun .def_87 () Int (select .def_14 .def_86))
(define-fun .def_88 () Bool (= .def_87 0))
(define-fun .def_89 () Int (ite .def_88 1 0))
(define-fun .def_90 () Bool (= .def_89 0))
(define-fun .def_91 () Bool (not .def_90))
(define-fun .def_116 () Bool (and .def_91 .def_115))
(define-fun .def_85 () Bool (not .def_84))
(define-fun .def_117 () Bool (and .def_85 .def_116))
(define-fun .def_132 () Bool (and .def_117 .def_131))
(define-fun .def_127 () Bool (= !pc.next 129))
(define-fun .def_128 () Bool (and .def_125 .def_127))
(define-fun .def_96 () Bool (and .def_90 .def_95))
(define-fun .def_98 () Bool (and .def_96 .def_97))
(define-fun .def_100 () Bool (and .def_98 .def_99))
(define-fun .def_101 () Bool (and .def_73 .def_100))
(define-fun .def_103 () Bool (and .def_101 .def_102))
(define-fun .def_105 () Bool (and .def_103 .def_104))
(define-fun .def_106 () Bool (and .def_85 .def_105))
(define-fun .def_129 () Bool (and .def_106 .def_128))
(define-fun .def_133 () Bool (or .def_129 .def_132))
(define-fun .def_137 () Bool (or .def_133 .def_136))
(define-fun .def_82 () Bool (and .def_52 .def_81))
(define-fun .def_77 () Bool (= |!{$(in_main#0)<&array>}.next| 1))
(define-fun .def_75 () Bool (= |!{$(in_main#0)<N>}.next| |!{$(in_main#0)<$(in___VERIFIER_nondet_int#1)<h#<__VERIFIER_nondet_int.return>>>}|))
(define-fun .def_71 () Bool (= |!{%memaddr}.next| 2))
(define-fun .def_69 () Bool (= |!{$(in_main#0)<k#1>}.next| |%{$(in_main#0)<k#1>}#1|))
(define-fun .def_68 () Bool (= |!{$(in_main#0)<k>}.next| 0))
(define-fun .def_70 () Bool (and .def_68 .def_69))
(define-fun .def_72 () Bool (and .def_70 .def_71))
(define-fun .def_74 () Bool (and .def_72 .def_73))
(define-fun .def_76 () Bool (and .def_74 .def_75))
(define-fun .def_78 () Bool (and .def_76 .def_77))
(define-fun .def_63 () Bool (<= |!{$(in_main#0)<$(in___VERIFIER_nondet_int#1)<h#<__VERIFIER_nondet_int.return>>>}| 0))
(define-fun .def_64 () Bool (not .def_63))
(define-fun .def_65 () Int (ite .def_64 1 0))
(define-fun .def_66 () Bool (= .def_65 0))
(define-fun .def_67 () Bool (not .def_66))
(define-fun .def_79 () Bool (and .def_67 .def_78))
(define-fun .def_83 () Bool (and .def_79 .def_82))
(define-fun .def_138 () Bool (or .def_83 .def_137))
(define-fun .def_212 () Bool (! (or .def_138 .def_211) :trans true))
(define-fun .def_139 () Bool (= .def_49 129))
(define-fun .def_213 () Bool (! (not .def_139) :invar-property 0 :invar-property-name ||))
(assert true)
